NAME : rnd9_20.tsp
TYPE : TSP
DIMENSION : 20
EDGE_WEIGHT_TYPE : EUC_2D
NODE_COORD_SECTION
0 876 392
1 11 132
2 22 34
3 326 907
4 989 901
5 109 91
6 380 803
7 468 497
8 118 887
9 105 694
10 470 111
11 628 886
12 717 555
13 929 565
14 70 944
15 977 140
16 255 759
17 35 977
18 676 568
19 306 291
